(set-info :smt-lib-version 2.6)
(set-logic LRA)
(set-info :source |
   Monniaux, David; Quantifier Elimination by Lazy Model Enumeration, CAV 2010
|)
(set-info :category "random")
; ./Mjollnir_examples/B2/formula_015.m
(set-info :status unsat)
(assert
 (forall ((|v11:0| Real) )(exists ((|v10:1| Real) )(forall ((|v9:2| Real) )(exists ((|v8:3| Real) )(forall ((|v7:4| Real) )(exists ((|v6:5| Real) )(forall ((|v5:6| Real) )(exists ((|v4:7| Real) )(forall ((|v3:8| Real) )(exists ((|v2:9| Real) )(forall ((|v1:10| Real) )(exists ((|v0:11| Real) )(let ((?x202 (+ (+ (* 14 |v8:3|) (* 10 |v0:11|)) (* 7 |v0:11|))))
(let ((?x50 (- 7)))
(let ((?x129 (* (- 13) |v6:5|)))
(let ((?x198 (+ (+ (+ (* 0 |v3:8|) (* 0 |v11:0|)) ?x129) (* (- 3) |v4:7|))))
(let (($x206 (and (<= ?x198 ?x50) (<= (+ ?x202 (* (- 14) |v7:4|)) 18))))
(let ((?x31 (- 15)))
(let ((?x108 (* 16 |v5:6|)))
(let ((?x190 (+ (+ (+ (* 15 |v4:7|) (* (- 2) |v0:11|)) ?x108) (* (- 18) |v7:4|))))
(let ((?x59 (- 2)))
(let ((?x184 (+ (+ (+ (* 9 |v7:4|) (* 14 |v8:3|)) |v8:3|) (* 19 |v6:5|))))
(let ((?x65 (- 12)))
(let ((?x141 (* ?x65 |v10:1|)))
(let ((?x170 (+ (+ (* 17 |v5:6|) (* ?x50 |v2:9|)) (* 18 |v3:8|))))
(let ((?x158 (+ (+ (* 20 |v0:11|) (* ?x65 |v0:11|)) (* 4 |v0:11|))))
(let (($x173 (or (<= (+ ?x158 (* ?x31 |v8:3|)) (- 18)) (<= (+ ?x170 ?x141) 8))))
(let ((?x148 (+ (+ (+ (* (- 16) |v11:0|) ?x141) (* 8 |v9:2|)) (* ?x65 |v11:0|))))
(let ((?x136 (+ (+ (+ (* (- 8) |v9:2|) ?x129) (* (- 4) |v3:8|)) (* (- 17) |v11:0|))))
(let (($x208 (and (and (and (<= ?x136 10) (<= ?x148 ?x65)) $x173) (and (and (<= ?x184 ?x59) (<= ?x190 ?x31)) $x206))))
(let ((?x34 (- 4)))
(let ((?x117 (+ (+ (* 0 |v6:5|) (* (- 20) |v1:10|)) (* 11 |v10:1|))))
(let ((?x105 (+ (+ (* (- 6) |v0:11|) (* 0 |v10:1|)) (* (- 3) |v5:6|))))
(let (($x123 (and (<= (+ ?x105 ?x108) ?x59) (<= (+ ?x117 (* (- 13) |v4:7|)) ?x34))))
(let ((?x92 (+ (+ (* ?x59 |v10:1|) (* 10 |v0:11|)) (* (- 14) |v6:5|))))
(let ((?x77 (+ (+ (* (- 20) |v7:4|) (* 9 |v8:3|)) (* 9 |v10:1|))))
(let (($x96 (and (<= (+ ?x77 (* (- 9) |v11:0|)) 5) (<= (+ ?x92 (* 9 |v4:7|)) ?x34))))
(let ((?x64 (+ (+ (+ (* ?x50 |v5:6|) (* 17 |v10:1|)) (* ?x59 |v0:11|)) (* (- 11) |v6:5|))))
(let ((?x45 0))
(let ((?x44 (+ (+ (+ (* ?x31 |v9:2|) (* ?x34 |v9:2|)) (* (- 11) |v3:8|)) (* (- 1) |v11:0|))))
(let ((?x21 (+ (+ (* 4 |v1:10|) (* 7 |v4:7|)) (* 15 |v7:4|))))
(or (<= (+ ?x21 (* (- 1) |v1:10|)) 3) (or (<= ?x44 ?x45) (and (and (<= ?x64 ?x65) (and $x96 $x123)) $x208)))))))))))))))))))))))))))))))))
)
)
)
)
)
)
)
)
)
)
)
)
(check-sat)
(exit)

